NAME: ../File/prFile/tspFile/tsp_file35.tsp
COMMENT: TSP file generated by Python
TYPE: TSP
DIMENSION: 30
EDGE_WEIGHT_TYPE: EUC_2D
NODE_COORD_SECTION
1 78 23
2 84 82
3 51 95
4 100 47
5 82 20
6 90 26
7 1 65
8 26 75
9 87 1
10 15 56
11 46 35
12 27 99
13 79 30
14 4 2
15 13 48
16 24 27
17 38 34
18 34 88
19 84 70
20 1 7
21 63 20
22 40 53
23 66 67
24 32 79
25 98 57
26 42 28
27 50 83
28 47 88
29 20 50
30 51 25
EOF
